<?xml version = "1.0" encoding="UTF-8" standalone="yes"?>
<CPLEXSolution version="1.2">
 <header
   problemName="C:\OperationsOptimization\LPFiles\TestCPlex.lp"
   objectiveValue="38"
   solutionTypeValue="1"
   solutionTypeString="basic"
   solutionStatusValue="1"
   solutionStatusString="optimal"
   solutionMethodString="dual"
   primalFeasible="1"
   dualFeasible="1"
   simplexIterations="0"
   writeLevel="1"/>
 <quality
   epRHS="9.9999999999999995e-07"
   epOpt="9.9999999999999995e-07"
   maxPrimalInfeas="0"
   maxDualInfeas="0"
   maxPrimalResidual="0"
   maxDualResidual="0"
   maxX="13"
   maxPi="2"
   maxSlack="0"
   maxRedCost="0"
   kappa="1"/>
 <linearConstraints>
  <constraint name="c1" index="0" status="LL" slack="0" dual="1"/>
  <constraint name="c2" index="1" status="LL" slack="0" dual="2"/>
 </linearConstraints>
 <variables>
  <variable name="X_1" index="0" status="BS" value="12" reducedCost="-0"/>
  <variable name="X_2" index="1" status="BS" value="13" reducedCost="-0"/>
 </variables>
</CPLEXSolution>
